
# 1000 iterations
[123 111  65  75  57  82  81  94  29  79  95  24  15  34  17   2 130  41
 112 117  83  39  85 128  71   1  45  16  70  97 107 110  98  64  26  69
  76  11   5 109  61 129 127 124  88  86   7  48  68  89  12  99  73  72
  52   9  74 103  87 100  35  38  56 101 119  36 116  19  25 113  84  43
 104  27  63  32  77  92  58  49  91  51  54  44  42  60  37 126  21   8
  50 105  59  30  18  80  93   4 106  31  78  90 125  66 115  62  28 108
 118  40  14  96  10  67 102   6 120  53  55 122 121 114   3  33  46  20
  22  23  47  13]
14573

# 2000 iterations
[123 111 101  82  57   9  56  65  52  75  74  73  99  72  91  51  93  80
  37  42  60  44  54   4 106  49  58  92  79  12  81  87 100  35  31  34
  17   2 130  39  71 128 112 117  62  28 115  85  66 125  90  78  59  30
   8 126  21  18 108  83 105  50  41  16  45   1  61 109   5  11  76 124
 129 127 107  70  26  86  88  69  64   7  97  48  25  98 110  89  29  94
  84 113  32  36 119  77  68  63  43  19 104  27 103 116  38  15  24  95
 118  40  23  47 121 114   3  46  20  33  22 122  55  53 120   6 102  14
  10  67  96  13]
10075

# 3000 iterations
[123 111 101  82  57   9  56  65  52  75  74  73  99  91  72  51  60  42
  44  37  93  80  54   4  35  17  34  31  19  15  24 116  87  12  81  92
  58  49 106  38  79  95 100  27 104  43  63  68  84  32 113  36 119 103
  77  94  29  89 110  98  25  48   7  97 124 129  64  69  88  86  26  70
 107 127  76  11   5 109  61  45  16   1  41 105  62  28 115 117 112 128
  71  39 130  50   2 118  33 121  21  18  83  85  66 125  90  78  59  30
   3 114 126   8 108  46  20  22  47  40  23 122  55  53 120   6 102  14
  10  67  96  13]
8019

# 4000 iterations
[123 111 101  82  57   9  56  65  52  75  74  73  99  91  72  49  58  92
  38 106  60  51  42  44  37  93  80   4  35  54  17  34  31  19  15  24
 116 100  27 104  43  98 110  89  94  29  95  79  81  12  87 103  77 119
  36  84 113  32  25  48  68  63 127 107  70  97   7  26  88  86  69  64
 124 129  61 109  76   5  11  45  16   1  41  39  71 130  50   2 118  20
  46  18 108   8 114  30  59  78  90 125  85  66  28 115  62 128 105 112
 117  83   3 126 121  21  33  22  47  40  23 122  55  53 120   6 102  14
  10  67  96  13]
6795

# 5000 iterations
[123 111 101  82  57   9  56  65  52  75  74  73  99  91  72  49  58  92
  38 106  53 120  60  51  42  44   4  35  54  17  34  31  19  15  24 116
  95  79  87  12  81 103  77 119  36  84  32 113  25  48  68  63  98 110
  89  94  29 100  27  43 104 127 107  70  97   7  26  88  86  69  64 124
 129  61 109  76  11   5  45  16   1  41  39  71 130  50   2 118  20  80
  46  18   8 108 114   3  83 117 112 128 105  62 115  28  66  85 125  90
  30  59  78 121 126  21  33  22  37  93  40  47  23 122  55   6 102  10
  14  67  96  13]
6209

# 6000 iterations
[111 123 101  82  57   9  56  65  52  75  74  73  99  91  72  49  58  92
  38 106  53 120  60  51  42  44   4  35  54  17  34  31  27 100 116  95
  79  87  12  81 103  77 119  84  36  32 113  25  48  63  68  98 110  89
  94  29  24  15  19  43 104 127 107  70  97   7  26  88  86  69  64 124
 129  61 109  76  11   5  45  16   1  41  39  71 130  50   2 118  20  80
  46  18   8 108 114   3  83 117 112 128 105  62 115  28  66  85 125  90
  30  59  78 121 126  21  33  93  37  22  40  47  23 122  55   6 102  10
  14  96  67  13]
6113

# 7000 iterations
[111 123 101  82  57   9  56  65  52  75  74  73  99  91  72  49  58  92
  38 106  53 120  60  51  42  44   4  35  54  17  34  31  27 100 116  95
  79  87  12  81 103  77 119  84  36  32 113  25  48  63  68  98 110  89
  94  29  24  15  19  43 104 127 107  70  97   7  26  88  86  69  64 124
 129  61 109  76  11   5  45  16   1  41  39  71 130  50   2 118  20  80
  46  18   8 108 114   3  83 117 112 128 105  62 115  28  66  85 125  90
  30  59  78 121 126  21  33  93  37  22  40  47  23 122  55   6 102  10
  14  96  67  13]
6113

# 8000 iterations
[111 123 101  82  57   9  56  65  52  75  74  73  99  91  72  49  58  92
  38 106  53 120  60  51  42  44   4  35  54  17  34  31  27 100 116  95
  79  87  12  81 103  77 119  84  36  32 113  25  48  63  68  98 110  89
  94  29  24  15  19  43 104 127 107  70  97   7  26  88  86  69  64 124
 129  61 109  76  11   5  45  16   1  41  39  71 130  50   2 118  20  80
  46  18   8 108 114   3  83 117 112 128 105  62 115  28  66  85 125  90
  30  59  78 121 126  21  33  93  37  22  40  47  23 122  55   6 102  10
  14  96  67  13]
6113

# 9000 iterations
[111 123 101  82  57   9  56  65  52  75  74  73  99  91  72  49  58  92
  38 106  53 120  60  51  42  44   4  35  54  17  34  31  27 100 116  95
  79  87  12  81 103  77 119  84  36  32 113  25  48  63  68  98 110  89
  94  29  24  15  19  43 104 127 107  70  97   7  26  88  86  69  64 124
 129  61 109  76  11   5  45  16   1  41  39  71 130  50   2 118  20  80
  46  18   8 108 114   3  83 117 112 128 105  62 115  28  66  85 125  90
  30  59  78 121 126  21  33  93  37  22  40  47  23 122  55   6 102  10
  14  96  67  13]
6113

# 10000 iterations
[111 123 101  82  57   9  56  65  52  75  74  73  99  91  72  49  58  92
  38 106  53 120  60  51  42  44   4  35  54  17  34  31  27 100 116  95
  79  87  12  81 103  77 119  84  36  32 113  25  48  63  68  98 110  89
  94  29  24  15  19  43 104 127 107  70  97   7  26  88  86  69  64 124
 129  61 109  76  11   5  45  16   1  41  39  71 130  50   2 118  20  80
  46  18   8 108 114   3  83 117 112 128 105  62 115  28  66  85 125  90
  30  59  78 121 126  21  33  93  37  22  40  47  23 122  55   6 102  10
  14  96  67  13]
6113
